%
% Generated Sudoku 25x25
% Density approximation: 0.50
%
x = array2d(1..n, 1..n, [
   _,   _,  14,  25,  20,  16,   3,   _,   _,   _,   _,  21,   _,  10,   _,   6,   8,   _,   _,   _,  19,  15,   _,   _,   _,
   _,  23,  18,  17,   7,  12,   _,   _,   6,   _,   _,   _,   2,   4,  15,  19,  16,  22,  10,   _,  24,   5,   _,   _,  11,
   _,   _,  22,   _,   2,  17,  18,   7,  13,   _,  12,  25,   _,   _,   9,  20,  11,   _,   5,   _,   _,   _,  21,   8,   _,
  15,   _,  16,   _,  11,  10,   _,  22,   5,   4,  20,  14,   _,   _,  19,  13,   9,   _,   1,   _,   _,  18,   _,   6,   2,
   _,   4,  24,   _,   _,   8,   _,   _,  14,   _,   3,   _,  16,  23,   5,  25,  18,   _,   7,  17,   _,  10,  12,   _,  20,
  11,   _,   9,   _,   8,   5,   _,  18,  25,   _,   _,   2,   _,  24,   _,  17,   _,   7,  22,   _,   _,   6,  15,  21,   _,
  14,   _,   _,   _,   _,   _,   _,   8,  15,   _,   9,  12,  11,   _,   _,  24,   2,  18,  13,   _,   _,   4,   _,   _,   _,
   _,  25,   7,   _,   _,   _,   _,   _,   _,   _,   6,   5,  15,   _,   _,  16,   _,   1,   _,   _,  12,   _,   _,   _,   _,
   _,   _,   _,   2,   _,  11,   _,   _,  16,   _,   _,  22,   _,   8,   _,   5,   _,   6,   3,  15,   _,  25,   7,   _,  24,
  24,  15,   _,  22,   _,  21,   _,   4,   _,  10,  19,   _,   _,   _,   _,   _,  14,   _,   8,   _,   5,   _,  20,   _,  23,
   _,   _,   _,   _,  14,   _,   1,   _,   _,   _,   4,   8,   _,   _,   6,   7,  12,  24,   _,   9,   _,  11,   3,  16,   _,
  18,  12,   _,   _,  24,   _,   7,   _,  17,  22,  16,   _,  14,   _,  21,   1,   _,   8,  23,   _,   4,  13,   _,   _,   _,
  16,   _,   _,   _,   _,   4,   9,   _,   _,   _,   _,   _,   _,   _,  12,   _,   _,   _,   _,  22,   1,   _,   _,  15,   _,
   _,   _,   6,   7,   _,  23,  25,   2,  11,  13,  22,  18,   5,   _,  17,   _,   3,   _,   _,   _,   _,   _,   _,  10,   _,
   1,   5,   3,  23,   4,   _,   _,   _,   8,   _,  24,   _,  13,   _,   7,  11,  10,  21,  25,  18,   _,   _,   _,   _,   _,
  22,   _,   _,   9,  13,   7,  15,   _,  23,   _,   _,  24,   _,   _,  16,   3,   _,   _,   _,   4,   6,  20,   _,   _,  10,
  19,   _,   8,   _,  10,  18,  22,   _,  12,   _,  13,   _,   _,  17,   _,  15,   _,   5,  16,   _,   2,   _,   _,   _,   _,
   6,   _,  11,  15,  16,  13,  10,   _,   _,   3,   _,   7,   9,  20,   8,  21,  22,  23,   _,  12,  17,   _,  14,   _,   _,
   _,  24,   _,   _,   _,   1,   5,  11,  20,   8,  10,   _,   _,  25,   2,   _,   _,   _,   _,   _,   _,   _,   _,   7,   _,
  17,   _,  21,   _,  25,   _,  16,   _,   _,  24,   1,   6,   _,  22,   _,   _,  13,  10,  20,   _,   3,   _,   5,   _,   _,
   _,   _,  20,   _,  19,  14,   8,   _,   _,   6,  21,   9,  25,  13,   _,  12,   _,   _,   2,   _,  15,   _,   _,   _,   _,
   2,  14,   _,   _,   5,   _,   _,   9,   _,   _,   _,   _,   8,  19,  24,  22,   6,  25,  18,   _,   _,   _,  10,  20,   _,
   _,  18,   _,   _,   _,   _,   _,   _,  22,  23,  15,   _,   6,   _,   _,   _,   7,   _,  21,   _,   _,   _,   _,   _,   _,
  23,   _,   _,  24,  22,   _,   _,  20,   _,   5,   _,  11,   1,  12,   _,   _,  19,   _,   4,   _,   _,   _,   9,   _,  13,
  25,  17,   _,   _,  12,  19,   _,   _,   _,  16,   7,   4,  22,   3,   _,  23,   5,   9,  15,   _,  11,   _,   _,   _,   6
]);

n = 25;
